&CONTROL
   calculation      = 'relax'
   verbosity        = 'high'
   prefix           = 'lto'
/
&SYSTEM
   ecutwfc          = 40
   occupations      = 'smearing'
   degauss          = 0.01
   nspin            = 2
   lda_plus_u       = .true.
   ntyp             = 3
   nat              = 44
   hubbard_u(2)     = 3.0
   starting_magnetization(2) = 0.0
   ibrav            = 0
/
&ELECTRONS
   electron_maxstep = 200
/
&IONS
/
&CELL
/

ATOMIC_SPECIES
La 138.90547 La.pbe-nsp-van.UPF
Ti 47.867 Ti_pbe_2_new.van.UPF
O 15.999 O.pbe-van_ak.UPF

K_POINTS automatic
3 5 2  0 0 0

CELL_PARAMETERS angstrom
7.81718000000000 0.00000000000000 0.00000000000000
0.00000000000000 5.59752700000000 0.00000000000000
-1.96119899853045 0.00000000000000 13.07279099597017

ATOMIC_POSITIONS angstrom
La 5.8413621748 0.8320164133 5.4992394787 
La 0.0146188267 3.6307799133 7.5735515172 
La 1.9801900878 1.0877170442 5.0905709594 
La 0.0025197177 1.3310639330 11.8218294800 
La 3.8990054296 1.3706048637 11.5505298484 
La 3.8757909136 3.8864805442 7.9822200366 
La 1.9569755719 4.1693683637 1.5222611475 
La 5.8534612838 4.1298274330 1.2509615160 
Ti 3.9167613920 3.9140651572 4.2546313392 
Ti 5.8407126106 4.0977592008 11.5139129609 
Ti 3.8844030145 1.3072016754 1.5812978717 
Ti -0.0392048129 3.9440567069 4.2068764337 
Ti 0.0152683908 1.2989957008 1.5588780351 
Ti 1.9715779870 4.1059651754 11.4914931243 
Ti 1.9392196095 1.1153016572 8.8181596568 
Ti 5.8951858144 1.1452932069 8.8659145623 
O 0.1132637702 5.1784849337 5.6234963572 
O 5.7427172313 2.3797214337 7.4492946388 
O 5.8604029512 4.4046100334 3.9892929003 
O -0.1413431227 3.0655472343 2.4214207850 
O 2.0556217362 2.3185292686 7.3334958562 
O 1.9538928549 1.7670721036 1.1944216949 
O 0.3922504155 0.2145979901 2.9678634487 
O -0.1297455996 2.4801802508 5.3249007380 
O 3.6573921927 5.4680785906 0.2785681033 
O 2.1985888088 2.6693150906 12.7942228926 
O 4.0496428772 2.3842610281 5.1738707836 
O 5.9973241242 0.2667837343 10.6513702110 
O 3.8981031291 0.9525367671 9.0442012859 
O 0.2535607336 5.4736369349 0.2502524380 
O 4.0409533613 3.0905737776 2.3998768255 
O 3.9020881466 4.5658356036 11.8783693010 
O 5.4637305860 3.0133614901 10.1049275473 
O 1.8063381243 5.1830245281 7.8989202123 
O -0.0052276804 3.8904883735 11.6600929098 
O 2.3470621553 3.0495215145 10.0638528380 
O 5.6024202679 2.6748734349 12.8225385579 
O 1.9578778724 3.7513002671 4.0285897101 
O 1.8150276402 0.2918102776 10.6729141705 
O 5.9857266010 5.2789437508 7.7478902580 
O 3.8003592653 5.1172927686 5.7392951398 
O 5.8612086819 1.0917248735 1.4126980862 
O -0.0044219497 1.6058465334 9.0834980956 
O 3.5089188461 0.2507580145 3.0089381580 
